
Gurobi 11.0.3 (linux64) logging started Mon Nov 25 05:01:14 2024

Set parameter LogFile to value "/home/yihong/Coding/OR_SUC/SUC_results_bigM100000_thread4/case24_ieee_rts_theta0.1_epsilon0.025_gurobi_seed1450000_num_gen100_N_WDR100_load_scaling_factor1_proposed_T28quadra_cost.txt"
Set parameter TimeLimit to value 3600
Gurobi Optimizer version 11.0.3 build v11.0.3rc0 (linux64 - "Ubuntu 20.04.6 LTS")

CPU model: AMD EPYC 7532 32-Core Processor, instruction set [SSE2|AVX|AVX2]
Thread count: 64 physical cores, 128 logical processors, using up to 4 threads

Optimize a model with 60682 rows, 34821 columns and 827226 nonzeros
Model fingerprint: 0x1dad8a39
Model has 2800 quadratic constraints
Variable types: 32021 continuous, 2800 integer (2800 binary)
Coefficient statistics:
  Matrix range     [3e-04, 2e+03]
  QMatrix range    [2e-03, 8e-03]
  QLMatrix range   [1e-02, 6e+01]
  Objective range  [1e+00, 1e+00]
  Bounds range     [1e+00, 1e+00]
  RHS range        [1e+00, 9e+03]
Presolve removed 49166 rows and 15039 columns
Presolve time: 0.31s
Presolved: 11516 rows, 19782 columns, 71155 nonzeros
Presolved model has 2800 quadratic constraint(s)
Variable types: 16982 continuous, 2800 integer (2800 binary)

Root relaxation: objective 4.333377e+04, 9049 iterations, 0.24 seconds (0.35 work units)

    Nodes    |    Current Node    |     Objective Bounds      |     Work
 Expl Unexpl |  Obj  Depth IntInf | Incumbent    BestBd   Gap | It/Node Time

H    0     0                    724469.94911 43333.7656  94.0%     -    0s
*    0     0               0    724469.94911 43333.7656  94.0%     -    0s
     0     0 359758.984    0 1040 724469.949 359758.984  50.3%     -    1s
     0     0 676694.127    0  517 724469.949 676694.127  6.59%     -    1s
     0     0 676837.811    0   41 724469.949 676837.811  6.57%     -    1s
     0     0 676974.530    0   37 724469.949 676974.530  6.56%     -    2s
     0     0 676974.988    0   37 724469.949 676974.988  6.56%     -    2s
     0     0 676977.469    0   38 724469.949 676977.469  6.56%     -    2s
     0     0 676977.887    0   38 724469.949 676977.887  6.56%     -    2s
     0     2 676977.887    0   38 724469.949 676977.887  6.56%     -    3s
   115   192 677363.786   27   30 724469.949 677024.742  6.55%  24.3    5s
H  244   243                    677214.84282 677024.742  0.03%  29.5    6s
*  244   243              54    677214.84282 677024.742  0.03%  29.6    6s

Cutting planes:
  Gomory: 15
  Lift-and-project: 10
  Implied bound: 233
  MIR: 27
  Flow cover: 296
  RLT: 347
  Relax-and-lift: 221

Explored 251 nodes (32645 simplex iterations) in 6.30 seconds (8.77 work units)
Thread count was 4 (of 128 available processors)

Solution count 2: 677215 724470 

Optimal solution found (tolerance 1.00e-03)
Warning: max constraint violation (9.1441e-09) exceeds tolerance
Best objective 6.772148428200e+05, best bound 6.770247420845e+05, gap 0.0281%
